p tw 61 66
1 2
2 13
3 4
4 5
5 6
6 7
7 8
8 9
8 21
9 10
10 11
11 12
12 14
13 24
14 15
14 17
15 16
16 21
17 18
18 19
19 20
20 6
21 22
22 23
23 25
24 35
25 26
26 27
27 28
27 40
28 29
29 30
30 31
31 32
32 33
32 36
33 34
34 40
35 46
36 37
37 38
38 39
39 25
40 41
41 42
42 43
42 54
43 44
44 45
44 54
45 47
46 57
47 48
48 49
49 50
50 51
51 52
52 53
53 56
54 55
55 56
56 58
57 59
59 60
60 61
61 3
